NAME : random_14
COMMENT : 50 random nodes
TYPE : TSP
DIMENSION : 50
EDGE_WEIGHT_TYPE : EUC_2D
NODE_COORD_SECTION
1 748 713
2 161 325
3 875 78
4 730 409
5 9 632
6 555 519
7 45 652
8 83 641
9 887 974
10 416 608
11 466 630
12 240 534
13 614 980
14 332 880
15 375 463
16 78 428
17 948 626
18 661 571
19 514 913
20 750 210
21 637 746
22 393 1001
23 144 511
24 607 20
25 772 226
26 20 376
27 635 929
28 141 216
29 502 590
30 357 402
31 28 882
32 162 349
33 350 332
34 816 904
35 845 510
36 191 317
37 482 164
38 557 859
39 403 18
40 293 753
41 979 897
42 658 933
43 674 537
44 206 570
45 649 861
46 812 187
47 194 512
48 168 957
49 864 638
50 560 374
EOF